param set_len = 54;
param target_sum = 15963646467;
param values := [1] 490467291 [2] 990704404 [3] 4337810 [4] 778950382 [5] 1055691232 [6] 506855413 [7] 896843315 [8] 682372781 [9] 100051092 [10] 1045082277 [11] 705770583 [12] 252887116 [13] 318847082 [14] 694960642 [15] 383365045 [16] 642435953 [17] 539836871 [18] 81666470 [19] 1044724130 [20] 811528766 [21] 48316658 [22] 686806734 [23] 1051140178 [24] 996852211 [25] 767484644 [26] 645631227 [27] 229720514 [28] 355575112 [29] 753375380 [30] 57407082 [31] 591038945 [32] 749556727 [33] 781985197 [34] 687841104 [35] 515535644 [36] 301092406 [37] 980310409 [38] 452686009 [39] 61776467 [40] 832086879 [41] 541863496 [42] 920279611 [43] 26321096 [44] 538665586 [45] 750225733 [46] 873191038 [47] 907298535 [48] 22477512 [49] 327580515 [50] 842340077 [51] 662238629 [52] 961774093 [53] 263889589 [54] 204470990 ;
